3986.0 134001.0 
3998.0 133783.0 
4059.0 131439.0 
4006.0 131866.0 
4003.0 133120.0 
4005.0 132770.0 
4047.0 131604.0 
4043.0 131638.0 
4037.0 131701.0 
4051.0 131514.0 
4069.0 131072.0 
4103.0 131001.0 
4095.0 131047.0 
4002.0 133522.0 
